27 27.0
21
3 3 21 0
3 4 21 3
3 5 14 22
3 6 24 21
3 7 4 0
3 8 7 0
3 9 17 7
3 10 14 12
3 11 17 16
3 12 14 0
3 19 7 8
3 20 4 7
3 21 24 0
4 3 0 0
4 4 0 23
4 6 0 17
4 7 17 0
4 8 10 0
4 14 0 3
4 19 10 8
4 20 20 7
